c FILE /home/rafael/Documents/HappySet/MIHS/inputs/happygen/output/graph_d_regular_k2_p0.2_v100_20241127_083956.txt
c SOURCE This is a d-regular graph formed for the happy graph colouring problem.
c DESCRIPTION It was generated using the problem generator of Rhyd Lewis
c
c GRAPH STATS
c Seed                             = -464773321
c Number of Nodes                  = 100
c Number of colours k              = 2
c Number of pre-assignments        = 20
c Degree of all vertices           = 6
c Density                          = 0.0606061
c 
c The degrees of nodes 1 to 100, respectively, are as follows 
c [6, 6, 6, 6, 6, 6, 6, 6, 6, 6, 6, 6, 6, 6, 6, 6, 6, 6, 6, 6, 6, 6, 6, 6, 6, 6, 
c  6, 6, 6, 6, 6, 6, 6, 6, 6, 6, 6, 6, 6, 6, 6, 6, 6, 6, 6, 6, 6, 6, 6, 6, 6, 
c  6, 6, 6, 6, 6, 6, 6, 6, 6, 6, 6, 6, 6, 6, 6, 6, 6, 6, 6, 6, 6, 6, 6, 6, 6, 
c  6, 6, 6, 6, 6, 6, 6, 6, 6, 6, 6, 6, 6, 6, 6, 6, 6, 6, 6, 6, 6, 6, 6, 6] 
c  
p edge 100 300 2
e 1 22
e 1 35
e 1 49
e 1 58
e 1 61
e 1 94
e 2 29
e 2 72
e 2 83
e 2 88
e 2 92
e 2 94
e 3 38
e 3 44
e 3 45
e 3 62
e 3 74
e 3 80
e 4 13
e 4 43
e 4 54
e 4 64
e 4 82
e 4 91
e 5 45
e 5 53
e 5 62
e 5 85
e 5 87
e 5 97
e 6 17
e 6 23
e 6 31
e 6 41
e 6 62
e 6 85
e 7 46
e 7 53
e 7 67
e 7 68
e 7 81
e 7 100
e 8 22
e 8 35
e 8 47
e 8 61
e 8 66
e 8 75
e 9 10
e 9 13
e 9 26
e 9 29
e 9 48
e 9 95
e 10 15
e 10 37
e 10 67
e 10 92
e 10 95
e 11 22
e 11 38
e 11 66
e 11 68
e 11 77
e 11 95
e 12 13
e 12 38
e 12 39
e 12 55
e 12 68
e 12 81
e 13 65
e 13 78
e 13 99
e 14 21
e 14 49
e 14 65
e 14 67
e 14 79
e 14 96
e 15 20
e 15 40
e 15 46
e 15 59
e 15 93
e 16 24
e 16 36
e 16 45
e 16 46
e 16 74
e 16 93
e 17 41
e 17 46
e 17 50
e 17 91
e 17 94
e 18 30
e 18 49
e 18 54
e 18 73
e 18 75
e 18 91
e 19 20
e 19 26
e 19 49
e 19 57
e 19 65
e 19 92
e 20 39
e 20 44
e 20 69
e 20 75
e 21 35
e 21 44
e 21 78
e 21 86
e 21 99
e 22 66
e 22 73
e 22 89
e 23 31
e 23 44
e 23 47
e 23 65
e 23 77
e 24 35
e 24 47
e 24 52
e 24 68
e 24 83
e 25 29
e 25 30
e 25 36
e 25 68
e 25 91
e 25 96
e 26 29
e 26 56
e 26 81
e 26 84
e 27 41
e 27 45
e 27 47
e 27 56
e 27 85
e 27 98
e 28 31
e 28 63
e 28 64
e 28 78
e 28 79
e 28 100
e 29 30
e 29 84
e 30 42
e 30 71
e 30 96
e 31 34
e 31 45
e 31 60
e 32 57
e 32 63
e 32 78
e 32 82
e 32 86
e 32 87
e 33 36
e 33 52
e 33 56
e 33 64
e 33 82
e 33 89
e 34 42
e 34 85
e 34 87
e 34 89
e 34 98
e 35 73
e 35 75
e 36 49
e 36 50
e 36 54
e 37 53
e 37 58
e 37 72
e 37 90
e 37 97
e 38 52
e 38 67
e 38 72
e 39 71
e 39 73
e 39 89
e 39 92
e 40 61
e 40 65
e 40 85
e 40 90
e 40 97
e 41 51
e 41 61
e 41 84
e 42 70
e 42 72
e 42 73
e 42 83
e 43 53
e 43 70
e 43 76
e 43 94
e 43 96
e 44 64
e 44 95
e 45 77
e 46 60
e 46 63
e 47 51
e 47 56
e 48 54
e 48 56
e 48 84
e 48 90
e 48 98
e 49 98
e 50 60
e 50 74
e 50 76
e 50 99
e 51 67
e 51 70
e 51 76
e 51 96
e 52 60
e 52 69
e 52 71
e 53 58
e 53 69
e 54 62
e 54 89
e 55 76
e 55 79
e 55 81
e 55 90
e 55 93
e 56 61
e 57 72
e 57 77
e 57 79
e 57 88
e 58 70
e 58 80
e 58 90
e 59 61
e 59 75
e 59 81
e 59 94
e 59 97
e 60 77
e 60 97
e 62 63
e 62 93
e 63 81
e 63 92
e 64 73
e 64 100
e 65 94
e 66 80
e 66 85
e 66 98
e 67 87
e 68 82
e 69 71
e 69 76
e 69 84
e 70 88
e 70 89
e 71 78
e 71 88
e 72 77
e 74 79
e 74 84
e 74 91
e 75 100
e 76 100
e 78 79
e 80 86
e 80 87
e 80 93
e 82 83
e 82 86
e 83 86
e 83 99
e 86 93
e 87 100
e 88 95
e 88 98
e 90 95
e 91 99
e 92 97
e 96 99
n 3 1
n 6 2
n 15 2
n 21 1
n 24 2
n 26 2
n 32 2
n 33 1
n 34 2
n 37 1
n 41 2
n 44 1
n 45 1
n 54 1
n 65 1
n 84 2
n 85 2
n 87 2
n 97 1
n 98 2
